17	4
23	22	22	23	
0	0	0	0	0	3	2	3	4	
7	10	1	9	3	3	6	13	17	
3	1	4	7	4	3	7	17	17	
2	3	7	6	10	3	5	9	14	
1	5	4	7	5	3	8	10	11	
225	8	10	10	3	3	10	11	17	
175	3	7	4	10	3	15	17	17	
125	4	6	10	7	3	12	17	17	
75	10	8	1	7	3	11	13	17	
100	8	7	9	6	3	12	15	17	
225	6	10	1	5	2	16	17	
125	7	2	3	5	3	17	17	17	
7	5	9	10	9	3	15	17	17	
2	3	10	8	8	3	17	17	17	
5	8	9	8	6	1	17	
5	8	4	5	1	2	17	17	
0	0	0	0	0	0	
